158194754421
158194754421
158194754421
158194754421
158194754421
158194754421
158194754421
158194754421
158194754421
158194754421
154599155598
154599155598
154599155598
154599155598
154599155598
154599155598
154599155598
154599155598
154599155598
154599155598
186629825680
186629825680
186629825680
186629825680
186629825680
186629825680
186629825680
186629825680
186629825680
186629825680
156801709111
156801709111
156801709111
156801709111
156801709111
156801709111
156801709111
156801709111
156801709111
156801709111
163082039925
163082039925
163082039925
163082039925
163082039925
163082039925
163082039925
163082039925
163082039925
163082039925
1552604601
1552604601
1552604601
1552604601
1552604601
1552604601
1552604601
1552604601
1552604601
1552604601
1557158034
1557158034
1557158034
1557158034
1557158034
1557158034
1557158034
1557158034
1557158034
1557158034
1556386666
1556386666
1556386666
1556386666
1556386666
1556386666
1556386666
1556386666
1556386666
1556386666
1561372718
1561372718
1561372718
1561372718
1561372718
1561372718
1561372718
1561372718
1561372718
1561372718
1558887675
1558887675
1558887675
1558887675
1558887675
1558887675
1558887675
1558887675
1558887675
1558887675
